NAME : portcgen-28-4
COMMENT : portcgen N=28, seed=4
TYPE : TSP
DIMENSION : 28
EDGE_WEIGHT_TYPE : EUC_2D
NODE_COORD_SECTION
1 46625 -284928
2 -88634 14585
3 154813 -429114
4 67210 -161649
5 -152282 -93771
6 -96900 -187519
7 4906 24301
8 144414 -184347
9 132495 -241533
10 86721 168373
11 292618 313376
12 4931 13205
13 -286806 -180792
14 -170283 -48378
15 153896 -86684
16 -163682 -107801
17 222272 -104970
18 -163501 -92704
19 -9745 -218519
20 -282022 165217
21 31106 44932
22 108392 191531
23 -73623 -330471
24 355093 100444
25 -173864 -296614
26 -113901 -172426
27 -147461 273064
28 69852 -225134
